Gurobi Optimizer version 10.0.3 build v10.0.3rc0 (win64)

CPU model: 13th Gen Intel(R) Core(TM) i7-13700T, instruction set [SSE2|AVX|AVX2]
Thread count: 16 physical cores, 24 logical processors, using up to 24 threads

Optimize a model with 13544405 rows, 1087229 columns and 27604725 nonzeros
Model fingerprint: 0xe81012f6
Variable types: 0 continuous, 1087229 integer (147600 binary)
Coefficient statistics:
  Matrix range     [1e+00, 6e+02]
  Objective range  [6e+00, 3e+02]
  Bounds range     [1e+00, 1e+00]
  RHS range        [1e+00, 6e+02]
Presolve removed 206389 rows and 785132 columns (presolve time = 6s) ...
Presolve removed 338814 rows and 785217 columns (presolve time = 10s) ...
Presolve removed 338814 rows and 785217 columns (presolve time = 15s) ...
Presolve removed 338814 rows and 785217 columns (presolve time = 20s) ...
Presolve removed 338814 rows and 785217 columns (presolve time = 25s) ...
Presolve removed 338814 rows and 785217 columns (presolve time = 30s) ...
Presolve removed 338814 rows and 785217 columns (presolve time = 35s) ...
Presolve removed 338814 rows and 785217 columns (presolve time = 40s) ...
Presolve removed 338814 rows and 785217 columns (presolve time = 45s) ...
Presolve removed 338814 rows and 785217 columns (presolve time = 50s) ...
Presolve removed 338814 rows and 785217 columns (presolve time = 55s) ...
Presolve removed 338814 rows and 785217 columns (presolve time = 60s) ...
Presolve removed 338814 rows and 785217 columns (presolve time = 65s) ...
Presolve removed 338814 rows and 785217 columns (presolve time = 70s) ...
Presolve removed 338814 rows and 824794 columns (presolve time = 75s) ...
Presolve removed 1097220 rows and 824794 columns (presolve time = 80s) ...
Presolve removed 2081087 rows and 825279 columns (presolve time = 85s) ...
Presolve removed 2081087 rows and 825331 columns (presolve time = 90s) ...
Presolve removed 2081196 rows and 825331 columns (presolve time = 95s) ...
Presolve removed 2081196 rows and 825331 columns (presolve time = 100s) ...
Presolve removed 2081196 rows and 825331 columns (presolve time = 105s) ...
Presolve removed 2081196 rows and 825331 columns (presolve time = 110s) ...
Presolve removed 2081196 rows and 825331 columns (presolve time = 115s) ...
Presolve removed 2081196 rows and 825331 columns (presolve time = 120s) ...
Presolve removed 2081196 rows and 825331 columns (presolve time = 125s) ...
Presolve removed 3780993 rows and 850990 columns (presolve time = 130s) ...
Presolve removed 3796129 rows and 865343 columns (presolve time = 135s) ...
Presolve removed 3796770 rows and 865343 columns (presolve time = 140s) ...
Presolve removed 3796770 rows and 865343 columns (presolve time = 145s) ...
Presolve removed 3796770 rows and 865343 columns (presolve time = 150s) ...
Presolve removed 3796770 rows and 865343 columns (presolve time = 155s) ...
Presolve removed 3796770 rows and 865343 columns (presolve time = 160s) ...
Presolve removed 3796770 rows and 865343 columns (presolve time = 165s) ...
Presolve removed 3855072 rows and 865385 columns (presolve time = 170s) ...
Presolve removed 4723725 rows and 865386 columns (presolve time = 175s) ...
Presolve removed 4761867 rows and 903528 columns (presolve time = 180s) ...
Presolve removed 4771477 rows and 903528 columns (presolve time = 185s) ...
Presolve removed 4771477 rows and 903528 columns (presolve time = 190s) ...
Presolve removed 4772464 rows and 903528 columns (presolve time = 195s) ...
Presolve removed 4772464 rows and 903528 columns (presolve time = 200s) ...
Presolve removed 4772464 rows and 903528 columns (presolve time = 205s) ...
Presolve removed 4772486 rows and 903528 columns (presolve time = 210s) ...
Presolve removed 4773086 rows and 903528 columns (presolve time = 215s) ...
Presolve removed 5068205 rows and 903528 columns (presolve time = 220s) ...
Presolve removed 5091036 rows and 903528 columns (presolve time = 227s) ...
Presolve removed 5106610 rows and 903528 columns (presolve time = 232s) ...
Presolve removed 5120479 rows and 903528 columns (presolve time = 236s) ...
Presolve removed 5134469 rows and 903528 columns (presolve time = 241s) ...
Presolve removed 5154087 rows and 903528 columns (presolve time = 247s) ...
Presolve removed 5167059 rows and 903528 columns (presolve time = 251s) ...
Presolve removed 5184977 rows and 903528 columns (presolve time = 256s) ...
Presolve removed 5197543 rows and 903528 columns (presolve time = 260s) ...
Presolve removed 5213601 rows and 903528 columns (presolve time = 265s) ...
Presolve removed 5229569 rows and 903528 columns (presolve time = 270s) ...
Presolve removed 5250941 rows and 903528 columns (presolve time = 276s) ...
Presolve removed 5265661 rows and 903528 columns (presolve time = 281s) ...
Presolve removed 5281044 rows and 903528 columns (presolve time = 286s) ...
Presolve removed 5299912 rows and 903528 columns (presolve time = 292s) ...
Presolve removed 5312878 rows and 903528 columns (presolve time = 296s) ...
Presolve removed 5327626 rows and 903528 columns (presolve time = 300s) ...
Presolve removed 5345488 rows and 903528 columns (presolve time = 306s) ...
Presolve removed 5358984 rows and 903528 columns (presolve time = 310s) ...
Presolve removed 5376238 rows and 903528 columns (presolve time = 316s) ...
Presolve removed 5392265 rows and 903528 columns (presolve time = 321s) ...
Presolve removed 5408904 rows and 903528 columns (presolve time = 326s) ...
Presolve removed 5427283 rows and 903528 columns (presolve time = 331s) ...
Presolve removed 5444572 rows and 903528 columns (presolve time = 337s) ...
Presolve removed 5459281 rows and 903528 columns (presolve time = 342s) ...
Presolve removed 5471475 rows and 903528 columns (presolve time = 345s) ...
Presolve removed 5497737 rows and 903528 columns (presolve time = 354s) ...
Presolve removed 5510510 rows and 903528 columns (presolve time = 358s) ...
Presolve removed 5525346 rows and 903528 columns (presolve time = 363s) ...
Presolve removed 5539686 rows and 903528 columns (presolve time = 367s) ...
Presolve removed 5554523 rows and 903528 columns (presolve time = 372s) ...
Presolve removed 5570411 rows and 903528 columns (presolve time = 395s) ...
Presolve removed 5586679 rows and 903528 columns (presolve time = 463s) ...
Presolve removed 5602809 rows and 903528 columns (presolve time = 498s) ...
Presolve removed 5612279 rows and 905410 columns (presolve time = 500s) ...
Presolve removed 6482907 rows and 905412 columns (presolve time = 505s) ...
Presolve removed 6520992 rows and 943497 columns (presolve time = 510s) ...
Presolve removed 6531851 rows and 943497 columns (presolve time = 515s) ...
Presolve removed 6531851 rows and 943497 columns (presolve time = 520s) ...
Presolve removed 6532461 rows and 943497 columns (presolve time = 525s) ...
Presolve removed 6533102 rows and 943497 columns (presolve time = 530s) ...
Presolve removed 6533123 rows and 943497 columns (presolve time = 535s) ...
Presolve removed 6533611 rows and 943497 columns (presolve time = 540s) ...
Presolve removed 6829363 rows and 943497 columns (presolve time = 545s) ...
Presolve removed 6844268 rows and 943497 columns (presolve time = 551s) ...
Presolve removed 6859706 rows and 943497 columns (presolve time = 556s) ...
Presolve removed 6874022 rows and 943497 columns (presolve time = 561s) ...
Presolve removed 6887883 rows and 943497 columns (presolve time = 566s) ...
Presolve removed 6901340 rows and 943497 columns (presolve time = 571s) ...
Presolve removed 6915096 rows and 943497 columns (presolve time = 576s) ...
Presolve removed 6928213 rows and 943497 columns (presolve time = 581s) ...
Presolve removed 6939887 rows and 943497 columns (presolve time = 586s) ...
Presolve removed 6953008 rows and 943497 columns (presolve time = 591s) ...
Presolve removed 6969126 rows and 943497 columns (presolve time = 597s) ...
Presolve removed 6980270 rows and 943497 columns (presolve time = 601s) ...
Presolve removed 6996421 rows and 943497 columns (presolve time = 607s) ...
Presolve removed 7007151 rows and 943497 columns (presolve time = 611s) ...
Presolve removed 7022189 rows and 943497 columns (presolve time = 617s) ...
Presolve removed 7037026 rows and 943497 columns (presolve time = 622s) ...
Presolve removed 7046976 rows and 943497 columns (presolve time = 626s) ...
Presolve removed 7061035 rows and 943497 columns (presolve time = 632s) ...
Presolve removed 7074078 rows and 943497 columns (presolve time = 637s) ...
Presolve removed 7088693 rows and 943497 columns (presolve time = 642s) ...
Presolve removed 7100343 rows and 943497 columns (presolve time = 645s) ...
Presolve removed 7120049 rows and 943497 columns (presolve time = 651s) ...
Presolve removed 7137540 rows and 943497 columns (presolve time = 656s) ...
Presolve removed 7153498 rows and 943497 columns (presolve time = 660s) ...
Presolve removed 7179518 rows and 943497 columns (presolve time = 667s) ...
Presolve removed 7194782 rows and 943497 columns (presolve time = 671s) ...
Presolve removed 7212422 rows and 943497 columns (presolve time = 676s) ...
Presolve removed 7226779 rows and 943497 columns (presolve time = 681s) ...
Presolve removed 7244249 rows and 943497 columns (presolve time = 685s) ...
Presolve removed 7271854 rows and 943497 columns (presolve time = 693s) ...
Presolve removed 7286527 rows and 943497 columns (presolve time = 697s) ...
Presolve removed 7300635 rows and 943497 columns (presolve time = 701s) ...
Presolve removed 7315820 rows and 943497 columns (presolve time = 705s) ...
Presolve removed 7331762 rows and 943497 columns (presolve time = 710s) ...
Presolve removed 7362319 rows and 943497 columns (presolve time = 719s) ...
Presolve removed 7370761 rows and 945376 columns (presolve time = 720s) ...
Presolve removed 8239063 rows and 945376 columns (presolve time = 725s) ...
Presolve removed 8288934 rows and 983308 columns (presolve time = 730s) ...
Presolve removed 8288934 rows and 983308 columns (presolve time = 735s) ...
Presolve removed 8292107 rows and 983308 columns (presolve time = 740s) ...
Presolve removed 8294114 rows and 983308 columns (presolve time = 745s) ...
Presolve removed 8703278 rows and 983308 columns (presolve time = 750s) ...
Presolve removed 8912537 rows and 983308 columns (presolve time = 755s) ...
Presolve removed 9117407 rows and 985173 columns (presolve time = 760s) ...
Presolve removed 9994925 rows and 985198 columns (presolve time = 765s) ...
Presolve removed 10046696 rows and 1023001 columns (presolve time = 770s) ...
Presolve removed 10046696 rows and 1023001 columns (presolve time = 775s) ...
Presolve removed 10051004 rows and 1023001 columns (presolve time = 780s) ...
Presolve removed 10053494 rows and 1023001 columns (presolve time = 785s) ...
Presolve removed 10365709 rows and 1023001 columns (presolve time = 791s) ...
Presolve removed 10394953 rows and 1023001 columns (presolve time = 795s) ...
Presolve removed 10428736 rows and 1023001 columns (presolve time = 800s) ...
Presolve removed 10460370 rows and 1023001 columns (presolve time = 805s) ...
Presolve removed 10494489 rows and 1023001 columns (presolve time = 811s) ...
Presolve removed 10526597 rows and 1023001 columns (presolve time = 816s) ...
Presolve removed 10557602 rows and 1023001 columns (presolve time = 821s) ...
Presolve removed 10591312 rows and 1023001 columns (presolve time = 826s) ...
Presolve removed 10617017 rows and 1023001 columns (presolve time = 830s) ...
Presolve removed 10655193 rows and 1023001 columns (presolve time = 836s) ...
Presolve removed 10688850 rows and 1023001 columns (presolve time = 841s) ...
Presolve removed 10716235 rows and 1023001 columns (presolve time = 845s) ...
Presolve removed 10749029 rows and 1023001 columns (presolve time = 850s) ...
Presolve removed 10782286 rows and 1023001 columns (presolve time = 855s) ...
Presolve removed 10826185 rows and 1023001 columns (presolve time = 862s) ...
Presolve removed 10857887 rows and 1023001 columns (presolve time = 867s) ...
Presolve removed 10873172 rows and 1024890 columns (presolve time = 870s) ...
Presolve removed 11750456 rows and 1024913 columns (presolve time = 875s) ...
Presolve removed 11802648 rows and 1062490 columns (presolve time = 880s) ...
Presolve removed 11810073 rows and 1062490 columns (presolve time = 885s) ...
Presolve removed 12119370 rows and 1062490 columns (presolve time = 892s) ...
Presolve removed 12141045 rows and 1062490 columns (presolve time = 896s) ...
Presolve removed 12162546 rows and 1062490 columns (presolve time = 901s) ...
Presolve removed 12182400 rows and 1062490 columns (presolve time = 905s) ...
Presolve removed 12207833 rows and 1062490 columns (presolve time = 911s) ...
Presolve removed 12232335 rows and 1062490 columns (presolve time = 916s) ...
Presolve removed 12254277 rows and 1062490 columns (presolve time = 921s) ...
Presolve removed 12276376 rows and 1062490 columns (presolve time = 926s) ...
Presolve removed 12296760 rows and 1062490 columns (presolve time = 930s) ...
Presolve removed 12319626 rows and 1062490 columns (presolve time = 936s) ...
Presolve removed 12339745 rows and 1062490 columns (presolve time = 940s) ...
Presolve removed 12366387 rows and 1062490 columns (presolve time = 946s) ...
Presolve removed 12386695 rows and 1062490 columns (presolve time = 951s) ...
Presolve removed 12412145 rows and 1062490 columns (presolve time = 956s) ...
Presolve removed 12436857 rows and 1062490 columns (presolve time = 962s) ...
Presolve removed 12455079 rows and 1062490 columns (presolve time = 966s) ...
Presolve removed 12472356 rows and 1062490 columns (presolve time = 970s) ...
Presolve removed 12493729 rows and 1062490 columns (presolve time = 975s) ...
Presolve removed 12518956 rows and 1062490 columns (presolve time = 981s) ...
Presolve removed 12547474 rows and 1062490 columns (presolve time = 988s) ...
Presolve removed 12561693 rows and 1062490 columns (presolve time = 991s) ...
Presolve removed 12591334 rows and 1062490 columns (presolve time = 997s) ...
Presolve removed 12608463 rows and 1062490 columns (presolve time = 1001s) ...
Presolve removed 12626294 rows and 1062490 columns (presolve time = 1005s) ...
Presolve removed 13241346 rows and 1082766 columns (presolve time = 1011s) ...
Presolve removed 13277868 rows and 1082766 columns (presolve time = 1016s) ...
Presolve removed 13309551 rows and 1082766 columns (presolve time = 1020s) ...
Presolve removed 13350820 rows and 1082766 columns (presolve time = 1026s) ...
Presolve removed 13384704 rows and 1082766 columns (presolve time = 1031s) ...
Presolve removed 13421786 rows and 1082766 columns (presolve time = 1036s) ...
Presolve removed 13462752 rows and 1082766 columns (presolve time = 1041s) ...
Presolve removed 13498226 rows and 1082766 columns (presolve time = 1045s) ...
Presolve removed 13539368 rows and 1084800 columns
Presolve time: 1049.01s
Presolved: 5037 rows, 2429 columns, 12032 nonzeros
Variable types: 0 continuous, 2429 integer (720 binary)
Found heuristic solution: objective 34831.690000

Root simplex log...

Iteration    Objective       Primal Inf.    Dual Inf.      Time
       0    1.7552434e+05   1.130829e+03   0.000000e+00   1051s
    2434    9.7372563e+04   0.000000e+00   0.000000e+00   1051s

Root relaxation: objective 9.737256e+04, 2434 iterations, 0.01 seconds (0.02 work units)

    Nodes    |    Current Node    |     Objective Bounds      |     Work
 Expl Unexpl |  Obj  Depth IntInf | Incumbent    BestBd   Gap | It/Node Time

     0     0 97372.5633    0  721 34831.6900 97372.5633   180%     - 1051s
H    0     0                    87481.960000 97372.5633  11.3%     - 1051s
H    0     0                    87799.960000 97372.5633  10.9%     - 1051s
H    0     0                    88086.960000 97372.5633  10.5%     - 1051s
H    0     0                    89279.960000 97372.5633  9.06%     - 1051s
H    0     0                    94629.620000 97372.5633  2.90%     - 1051s
H    0     0                    94876.470000 97372.5633  2.63%     - 1051s
     0     0 95510.8283    0   94 94876.4700 95510.8283  0.67%     - 1051s
     0     0 95510.8283    0   94 94876.4700 95510.8283  0.67%     - 1051s
H    0     0                    95299.470000 95510.8283  0.22%     - 1051s
     0     0 95368.9763    0   61 95299.4700 95368.9763  0.07%     - 1051s
     0     0 95368.9763    0  133 95299.4700 95368.9763  0.07%     - 1051s
     0     0 95368.9763    0   21 95299.4700 95368.9763  0.07%     - 1051s
H    0     0                    95314.470000 95368.9763  0.06%     - 1051s
H    0     0                    95323.870000 95368.9763  0.05%     - 1051s
     0     0 95368.9763    0   42 95323.8700 95368.9763  0.05%     - 1051s
H    0     0                    95368.870000 95368.9763  0.00%     - 1051s

Cutting planes:
  Gomory: 13
  Cover: 24
  Implied bound: 32
  Clique: 27
  MIR: 2
  Flow cover: 7
  Zero half: 6
  RLT: 4
  PSD: 6

Explored 1 nodes (3848 simplex iterations) in 1052.44 seconds (260.69 work units)
Thread count was 24 (of 24 available processors)

Solution count 10: 95368.9 95323.9 95314.5 ... 88087

Optimal solution found (tolerance 1.00e-04)
Best objective 9.536887000000e+04, best bound 9.536887000000e+04, gap 0.0000%
Valor da função objetivo:  95368.87000000001

Tempo para criar o modelo:  101.82883715629578
